c description: Random 3-CNF over 21 variables and 89 clauses
c generator: CNFgen (0.9.2)
c copyright: (C) 2012-2022 Massimo Lauria <massimo.lauria@uniroma1.it>
c url: https://massimolauria.net/cnfgen
c command line: cnfgen --output CNF_4.28/21_bit_89_978.cnf randkcnf 3 21 89
c
p cnf 21 89
1 -12 -17 0
6 10 21 0
2 3 8 0
2 -18 19 0
7 8 -18 0
10 13 16 0
6 12 -16 0
5 11 16 0
-11 -16 17 0
-1 -8 15 0
4 -9 -21 0
5 12 -18 0
4 -18 20 0
1 -8 -18 0
-6 -7 17 0
2 -9 15 0
-8 -9 -17 0
5 -12 -18 0
4 -8 -15 0
4 -7 12 0
-2 17 21 0
2 9 -17 0
-4 -19 21 0
-3 -8 -19 0
-15 -17 19 0
-3 -4 -17 0
-8 14 15 0
9 -11 -20 0
4 -14 21 0
1 -10 -20 0
4 -12 14 0
4 -5 21 0
12 16 20 0
2 4 11 0
3 -10 14 0
10 -15 17 0
-5 7 -10 0
6 -8 14 0
-4 -7 -15 0
1 -20 -21 0
5 -11 -16 0
-8 -15 21 0
1 5 -20 0
-4 13 19 0
10 -16 -17 0
6 -16 -19 0
-6 11 -12 0
-10 -15 19 0
6 -14 19 0
-2 -15 17 0
2 5 9 0
-2 8 15 0
9 17 -20 0
1 14 -20 0
-5 12 -16 0
-9 15 -21 0
-10 14 -21 0
1 3 -6 0
3 8 -18 0
1 -9 17 0
-2 8 -15 0
-2 3 15 0
3 -6 -13 0
-1 12 -13 0
8 -15 16 0
5 -15 -21 0
1 9 16 0
-7 -11 -21 0
-19 -20 21 0
-5 11 -12 0
-14 17 -21 0
-12 -17 -21 0
-4 5 -11 0
1 4 12 0
2 -4 11 0
-2 -5 13 0
-8 -15 -21 0
-1 -5 -19 0
-4 -14 -16 0
5 10 19 0
-16 18 -19 0
-1 13 19 0
7 8 15 0
-3 -6 -16 0
-3 -6 14 0
1 -3 -10 0
5 8 20 0
3 -6 20 0
7 -12 18 0
